<instance format="XCSP3" type="CSP">
  <variables>
    <array id="x" size="[6]"> 0 1 </array>
  </variables>
  <constraints>
    <sum>
      <list> x[] </list>
      <coeffs> 8 12 13 64 22 41 </coeffs>
      <condition> (le,80) </condition>
    </sum>
    <sum>
      <list> x[] </list>
      <coeffs> 8 12 13 75 22 41 </coeffs>
      <condition> (le,96) </condition>
    </sum>
    <sum>
      <list> x[] </list>
      <coeffs> 3 6 4 18 6 4 </coeffs>
      <condition> (le,20) </condition>
    </sum>
    <sum>
      <list> x[] </list>
      <coeffs> 5 10 8 32 6 12 </coeffs>
      <condition> (le,36) </condition>
    </sum>
    <sum>
      <list> x[] </list>
      <coeffs> 5 13 8 42 6 20 </coeffs>
      <condition> (le,44) </condition>
    </sum>
    <sum>
      <list> x[] </list>
      <coeffs> 5 13 8 48 6 20 </coeffs>
      <condition> (le,48) </condition>
    </sum>
    <sum>
      <list> x[] </list>
      <coeffs> 0 0 0 0 8 0 </coeffs>
      <condition> (le,10) </condition>
    </sum>
    <sum>
      <list> x[] </list>
      <coeffs> 3 0 4 0 8 0 </coeffs>
      <condition> (le,18) </condition>
    </sum>
    <sum>
      <list> x[] </list>
      <coeffs> 3 2 4 0 8 4 </coeffs>
      <condition> (le,22) </condition>
    </sum>
    <sum>
      <list> x[] </list>
      <coeffs> 3 2 4 8 8 4 </coeffs>
      <condition> (le,24) </condition>
    </sum>
    <sum>
      <list> x[] </list>
      <coeffs> 100 600 1200 2400 500 2000 </coeffs>
      <condition> (eq,3800) </condition>
    </sum>
  </constraints>
</instance>

